unsat
(:cnf-encoding-aux-vars 11
 :max-memory            18.63
 :memory                18.42
 :nlsat-arith-var       5
 :nlsat-atoms           37
 :nlsat-bool-var        19
 :nlsat-clauses         68
 :nlsat-conflicts       4
 :nlsat-decisions       23
 :nlsat-propagations    28
 :num-allocs            79177
 :rlimit-count          9169
 :solve-eqs-elim-vars   26
 :solve-eqs-steps       49
 :time                  0.01
 :total-time            0.01)
